Route 1: 6 37 42 15 2 21 40 26 12 28 27
Route 2: 31 7 48 47 8 18 5 13 1
Route 3: 24 29 34 9 35 3 33 50
Route 4: 10 19 11 36 49 32 20 30
Route 5: 41 22 23 39 4 25
Route 6: 43 14 44 38 16 17 45 46
Vehicles: 6
Distance: 760.96
